\* Knapsack_Problem *\
Maximize
Objective:_Maximize_profit: 20 item_0 + 30 item_1 + 30 item_10 + 20 item_11
 + 10 item_2 + 90 item_3 + 10 item_4 + 40 item_5 + 100 item_6 + 60 item_7
 + 70 item_8 + 50 item_9
Subject To
Constraint:_Max_capacity: 5 item_0 + 6 item_1 + item_10 + 2 item_11 + 7 item_2
 + 32 item_3 + 2 item_4 + 5 item_5 + 7 item_6 + 9 item_7 + 12 item_8
 + 11 item_9 <= 32
Binaries
item_0
item_1
item_10
item_11
item_2
item_3
item_4
item_5
item_6
item_7
item_8
item_9
End
